clingo version 5.6.2
Reading from ...togen_asp_scripts/ijp_expt_cases-81.dl
Solving...
UNSATISFIABLE

Models       : 0
Calls        : 1
Time         : 0.065s (Solving: 0.02s 1st Model: 0.00s Unsat: 0.02s)
CPU Time     : 0.065s
